p cnf 14 31
-4 8 9 0
12 5 11 0
7 1 -3 -8 0
-7 6 0
6 -3 -10 0
-13 10 8 0
2 -5 -7 -4 0
-11 -2 -7 0
-3 -11 13 0
-5 8 -3 0
14 -10 0
-5 -8 1 -13 11 0
6 8 10 0
-10 -13 -6 0
3 7 -14 0
2 4 0
-12 6 0
-6 3 -13 0
-6 -1 12 0
9 -5 -2 0
6 -8 10 0
3 13 -7 0
-12 -9 0
-1 -12 -11 0
6 -9 0
11 -1 -13 5 0
-2 -9 12 0
-5 -1 0
-1 -7 -2 0
14 13 11 0
-2 4 1 0
